\ENCODING=ISO-8859-1
\Problem name: IloCplex

Maximize
 obj: 30 p_1 + 3000 y_1 + 3 I_0_1 + 6 I_1_1 + 9 I_2_1 + 7 I_3_1 + 8 I_4_1
      + 6 I_5_1 + 6 I_6_1 + 8 I_7_1 + 8 I_8_1 + 9 I_9_1 + 7 I_10_1 + 8 I_11_1
      + 9 I_12_1 + 6 I_13_1 + 6 I_14_1 + 30 p_2 + 3000 y_2 + 3 I_0_2 + 6 I_1_2
      + 9 I_2_2 + 7 I_3_2 + 8 I_4_2 + 6 I_5_2 + 6 I_6_2 + 8 I_7_2 + 8 I_8_2
      + 9 I_9_2 + 7 I_10_2 + 8 I_11_2 + 9 I_12_2 + 6 I_13_2 + 6 I_14_2 + 30 p_3
      + 3000 y_3 + 3 I_0_3 + 6 I_1_3 + 9 I_2_3 + 7 I_3_3 + 8 I_4_3 + 6 I_5_3
      + 6 I_6_3 + 8 I_7_3 + 8 I_8_3 + 9 I_9_3 + 7 I_10_3 + 8 I_11_3 + 9 I_12_3
      + 6 I_13_3 + 6 I_14_3 + 30 p_4 + 3000 y_4 + 3 I_0_4 + 6 I_1_4 + 9 I_2_4
      + 7 I_3_4 + 8 I_4_4 + 6 I_5_4 + 6 I_6_4 + 8 I_7_4 + 8 I_8_4 + 9 I_9_4
      + 7 I_10_4 + 8 I_11_4 + 9 I_12_4 + 6 I_13_4 + 6 I_14_4 + 30 p_5
      + 3000 y_5 + 3 I_0_5 + 6 I_1_5 + 9 I_2_5 + 7 I_3_5 + 8 I_4_5 + 6 I_5_5
      + 6 I_6_5 + 8 I_7_5 + 8 I_8_5 + 9 I_9_5 + 7 I_10_5 + 8 I_11_5 + 9 I_12_5
      + 6 I_13_5 + 6 I_14_5
Subject To
 A(te1)#0:        p_1 - I_0_1 + I_0_0  = 0
 A(te2)#1:        I_0_1 + p_2 - I_0_2  = 0
 A(te3)#2:        I_0_2 + p_3 - I_0_3  = 0
 A(te4)#3:        I_0_3 + p_4 - I_0_4  = 0
 A(te5)#4:        I_0_4 + p_5 - I_0_5  = 0
 B(Ie0;te1)#5:    - I_0_1 + I_0_0 + q_0_1  = 10
 B(Ie0;te2)#6:    I_0_1 - I_0_2 + q_0_2  = 15
 B(Ie0;te3)#7:    I_0_2 - I_0_3 + q_0_3  = 15
 B(Ie0;te4)#8:    I_0_3 - I_0_4 + q_0_4  = 7
 B(Ie0;te5)#9:    I_0_4 - I_0_5 + q_0_5  = 13
 B(Ie1;te1)#10:   - I_1_1 + I_1_0 + q_1_1  = 10
 B(Ie1;te2)#11:   I_1_1 - I_1_2 + q_1_2  = 15
 B(Ie1;te3)#12:   I_1_2 - I_1_3 + q_1_3  = 15
 B(Ie1;te4)#13:   I_1_3 - I_1_4 + q_1_4  = 7
 B(Ie1;te5)#14:   I_1_4 - I_1_5 + q_1_5  = 13
 B(Ie2;te1)#15:   - I_2_1 + I_2_0 + q_2_1  = 10
 B(Ie2;te2)#16:   I_2_1 - I_2_2 + q_2_2  = 15
 B(Ie2;te3)#17:   I_2_2 - I_2_3 + q_2_3  = 15
 B(Ie2;te4)#18:   I_2_3 - I_2_4 + q_2_4  = 7
 B(Ie2;te5)#19:   I_2_4 - I_2_5 + q_2_5  = 13
 B(Ie3;te1)#20:   - I_3_1 + I_3_0 + q_3_1  = 10
 B(Ie3;te2)#21:   I_3_1 - I_3_2 + q_3_2  = 15
 B(Ie3;te3)#22:   I_3_2 - I_3_3 + q_3_3  = 15
 B(Ie3;te4)#23:   I_3_3 - I_3_4 + q_3_4  = 7
 B(Ie3;te5)#24:   I_3_4 - I_3_5 + q_3_5  = 13
 B(Ie4;te1)#25:   - I_4_1 + I_4_0 + q_4_1  = 10
 B(Ie4;te2)#26:   I_4_1 - I_4_2 + q_4_2  = 15
 B(Ie4;te3)#27:   I_4_2 - I_4_3 + q_4_3  = 15
 B(Ie4;te4)#28:   I_4_3 - I_4_4 + q_4_4  = 7
 B(Ie4;te5)#29:   I_4_4 - I_4_5 + q_4_5  = 13
 B(Ie5;te1)#30:   - I_5_1 + I_5_0 + q_5_1  = 10
 B(Ie5;te2)#31:   I_5_1 - I_5_2 + q_5_2  = 15
 B(Ie5;te3)#32:   I_5_2 - I_5_3 + q_5_3  = 15
 B(Ie5;te4)#33:   I_5_3 - I_5_4 + q_5_4  = 7
 B(Ie5;te5)#34:   I_5_4 - I_5_5 + q_5_5  = 13
 B(Ie6;te1)#35:   - I_6_1 + I_6_0 + q_6_1  = 4.6242849322719e-44
 B(Ie6;te2)#36:   I_6_1 - I_6_2 + q_6_2  = 4.6242849322719e-44
 B(Ie6;te3)#37:   I_6_2 - I_6_3 + q_6_3  = 4.6242849322719e-44
 B(Ie6;te4)#38:   I_6_3 - I_6_4 + q_6_4  = 4.6242849322719e-44
 B(Ie6;te5)#39:   I_6_4 - I_6_5 + q_6_5  = 4.6242849322719e-44
 B(Ie7;te1)#40:   - I_7_1 + I_7_0 + q_7_1  = 0
 B(Ie7;te2)#41:   I_7_1 - I_7_2 + q_7_2  = 0
 B(Ie7;te3)#42:   I_7_2 - I_7_3 + q_7_3  = 0
 B(Ie7;te4)#43:   I_7_3 - I_7_4 + q_7_4  = 0
 B(Ie7;te5)#44:   I_7_4 - I_7_5 + q_7_5  = 0
 B(Ie8;te1)#45:   - I_8_1 + I_8_0 + q_8_1  = 15
 B(Ie8;te2)#46:   I_8_1 - I_8_2 + q_8_2  = 15
 B(Ie8;te3)#47:   I_8_2 - I_8_3 + q_8_3  = 7
 B(Ie8;te4)#48:   I_8_3 - I_8_4 + q_8_4  = 13
 B(Ie8;te5)#49:   I_8_4 - I_8_5 + q_8_5  = 16
 B(Ie9;te1)#50:   - I_9_1 + I_9_0 + q_9_1  = 15
 B(Ie9;te2)#51:   I_9_1 - I_9_2 + q_9_2  = 15
 B(Ie9;te3)#52:   I_9_2 - I_9_3 + q_9_3  = 7
 B(Ie9;te4)#53:   I_9_3 - I_9_4 + q_9_4  = 13
 B(Ie9;te5)#54:   I_9_4 - I_9_5 + q_9_5  = 16
 B(Ie10;te1)#55:  - I_10_1 + I_10_0 + q_10_1  = 15
 B(Ie10;te2)#56:  I_10_1 - I_10_2 + q_10_2  = 15
 B(Ie10;te3)#57:  I_10_2 - I_10_3 + q_10_3  = 7
 B(Ie10;te4)#58:  I_10_3 - I_10_4 + q_10_4  = 13
 B(Ie10;te5)#59:  I_10_4 - I_10_5 + q_10_5  = 16
 B(Ie11;te1)#60:  - I_11_1 + I_11_0 + q_11_1  = 15
 B(Ie11;te2)#61:  I_11_1 - I_11_2 + q_11_2  = 15
 B(Ie11;te3)#62:  I_11_2 - I_11_3 + q_11_3  = 7
 B(Ie11;te4)#63:  I_11_3 - I_11_4 + q_11_4  = 13
 B(Ie11;te5)#64:  I_11_4 - I_11_5 + q_11_5  = 16
 B(Ie12;te1)#65:  - I_12_1 + I_12_0 + q_12_1  = 15
 B(Ie12;te2)#66:  I_12_1 - I_12_2 + q_12_2  = 15
 B(Ie12;te3)#67:  I_12_2 - I_12_3 + q_12_3  = 7
 B(Ie12;te4)#68:  I_12_3 - I_12_4 + q_12_4  = 13
 B(Ie12;te5)#69:  I_12_4 - I_12_5 + q_12_5  = 16
 B(Ie13;te1)#70:  - I_13_1 + I_13_0 + q_13_1  = 15
 B(Ie13;te2)#71:  I_13_1 - I_13_2 + q_13_2  = 15
 B(Ie13;te3)#72:  I_13_2 - I_13_3 + q_13_3  = 7
 B(Ie13;te4)#73:  I_13_3 - I_13_4 + q_13_4  = 13
 B(Ie13;te5)#74:  I_13_4 - I_13_5 + q_13_5  = 16
 B(Ie14;te1)#75:  - I_14_1 + I_14_0 + q_14_1  = 4.6242849322719e-44
 B(Ie14;te2)#76:  I_14_1 - I_14_2 + q_14_2  = 4.6242849322719e-44
 B(Ie14;te3)#77:  I_14_2 - I_14_3 + q_14_3  = 4.6242849322719e-44
 B(Ie14;te4)#78:  I_14_3 - I_14_4 + q_14_4  = 4.6242849322719e-44
 B(Ie14;te5)#79:  I_14_4 - I_14_5 + q_14_5  = 4.6242849322719e-44
 C(te1)#80:       p_1 - 10000000000 y_1 <= 0
 C(te2)#81:       p_2 - 10000000000 y_2 <= 0
 C(te3)#82:       p_3 - 10000000000 y_3 <= 0
 C(te4)#83:       p_4 - 10000000000 y_4 <= 0
 C(te5)#84:       p_5 - 10000000000 y_5 <= 0
 D(te1)#85:       I_0_0 <= 10000000000
 D(te2)#86:       I_0_1 <= 10000000000
 D(te3)#87:       I_0_2 <= 10000000000
 D(te4)#88:       I_0_3 <= 10000000000
 D(te5)#89:       I_0_4 <= 10000000000
 D(Ie1;te1)#90:   I_1_0 + q_1_1 <= 20
 D(Ie1;te2)#91:   I_1_1 + q_1_2 <= 20
 D(Ie1;te3)#92:   I_1_2 + q_1_3 <= 20
 D(Ie1;te4)#93:   I_1_3 + q_1_4 <= 20
 D(Ie1;te5)#94:   I_1_4 + q_1_5 <= 20
 D(Ie2;te1)#95:   I_2_0 + q_2_1 <= 45
 D(Ie2;te2)#96:   I_2_1 + q_2_2 <= 45
 D(Ie2;te3)#97:   I_2_2 + q_2_3 <= 45
 D(Ie2;te4)#98:   I_2_3 + q_2_4 <= 45
 D(Ie2;te5)#99:   I_2_4 + q_2_5 <= 45
 D(Ie3;te1)#100:  I_3_0 + q_3_1 <= 45
 D(Ie3;te2)#101:  I_3_1 + q_3_2 <= 45
 D(Ie3;te3)#102:  I_3_2 + q_3_3 <= 45
 D(Ie3;te4)#103:  I_3_3 + q_3_4 <= 45
 D(Ie3;te5)#104:  I_3_4 + q_3_5 <= 45
 D(Ie4;te1)#105:  I_4_0 + q_4_1 <= 14
 D(Ie4;te2)#106:  I_4_1 + q_4_2 <= 14
 D(Ie4;te3)#107:  I_4_2 + q_4_3 <= 14
 D(Ie4;te4)#108:  I_4_3 + q_4_4 <= 14
 D(Ie4;te5)#109:  I_4_4 + q_4_5 <= 14
 D(Ie5;te1)#110:  I_5_0 + q_5_1 <= 39
 D(Ie5;te2)#111:  I_5_1 + q_5_2 <= 39
 D(Ie5;te3)#112:  I_5_2 + q_5_3 <= 39
 D(Ie5;te4)#113:  I_5_3 + q_5_4 <= 39
 D(Ie5;te5)#114:  I_5_4 + q_5_5 <= 39
 D(Ie6;te1)#115:  I_6_0 + q_6_1 <= 96
 D(Ie6;te2)#116:  I_6_1 + q_6_2 <= 96
 D(Ie6;te3)#117:  I_6_2 + q_6_3 <= 96
 D(Ie6;te4)#118:  I_6_3 + q_6_4 <= 96
 D(Ie6;te5)#119:  I_6_4 + q_6_5 <= 96
 D(Ie7;te1)#120:  I_7_0 + q_7_1 <= 132
 D(Ie7;te2)#121:  I_7_1 + q_7_2 <= 132
 D(Ie7;te3)#122:  I_7_2 + q_7_3 <= 132
 D(Ie7;te4)#123:  I_7_3 + q_7_4 <= 132
 D(Ie7;te5)#124:  I_7_4 + q_7_5 <= 132
 D(Ie8;te1)#125:  I_8_0 + q_8_1 <= 26
 D(Ie8;te2)#126:  I_8_1 + q_8_2 <= 26
 D(Ie8;te3)#127:  I_8_2 + q_8_3 <= 26
 D(Ie8;te4)#128:  I_8_3 + q_8_4 <= 26
 D(Ie8;te5)#129:  I_8_4 + q_8_5 <= 26
 D(Ie9;te1)#130:  I_9_0 + q_9_1 <= 114
 D(Ie9;te2)#131:  I_9_1 + q_9_2 <= 114
 D(Ie9;te3)#132:  I_9_2 + q_9_3 <= 114
 D(Ie9;te4)#133:  I_9_3 + q_9_4 <= 114
 D(Ie9;te5)#134:  I_9_4 + q_9_5 <= 114
 D(Ie10;te1)#135: I_10_0 + q_10_1 <= 110
 D(Ie10;te2)#136: I_10_1 + q_10_2 <= 110
 D(Ie10;te3)#137: I_10_2 + q_10_3 <= 110
 D(Ie10;te4)#138: I_10_3 + q_10_4 <= 110
 D(Ie10;te5)#139: I_10_4 + q_10_5 <= 110
 D(Ie11;te1)#140: I_11_0 + q_11_1 <= 95
 D(Ie11;te2)#141: I_11_1 + q_11_2 <= 95
 D(Ie11;te3)#142: I_11_2 + q_11_3 <= 95
 D(Ie11;te4)#143: I_11_3 + q_11_4 <= 95
 D(Ie11;te5)#144: I_11_4 + q_11_5 <= 95
 D(Ie12;te1)#145: I_12_0 + q_12_1 <= 63
 D(Ie12;te2)#146: I_12_1 + q_12_2 <= 63
 D(Ie12;te3)#147: I_12_2 + q_12_3 <= 63
 D(Ie12;te4)#148: I_12_3 + q_12_4 <= 63
 D(Ie12;te5)#149: I_12_4 + q_12_5 <= 63
 D(Ie13;te1)#150: I_13_0 + q_13_1 <= 114
 D(Ie13;te2)#151: I_13_1 + q_13_2 <= 114
 D(Ie13;te3)#152: I_13_2 + q_13_3 <= 114
 D(Ie13;te4)#153: I_13_3 + q_13_4 <= 114
 D(Ie13;te5)#154: I_13_4 + q_13_5 <= 114
 D(Ie14;te1)#155: I_14_0 + q_14_1 <= 57
 D(Ie14;te2)#156: I_14_1 + q_14_2 <= 57
 D(Ie14;te3)#157: I_14_2 + q_14_3 <= 57
 D(Ie14;te4)#158: I_14_3 + q_14_4 <= 57
 D(Ie14;te5)#159: I_14_4 + q_14_5 <= 57
Bounds
 0 <= p_1 <= 10000000000
 0 <= y_1 <= 1
 0 <= I_0_1 <= 10000000000
 0 <= I_1_1 <= 20
 0 <= I_2_1 <= 45
 0 <= I_3_1 <= 45
 0 <= I_4_1 <= 14
 0 <= I_5_1 <= 39
 0 <= I_6_1 <= 96
 0 <= I_7_1 <= 132
 0 <= I_8_1 <= 26
 0 <= I_9_1 <= 114
 0 <= I_10_1 <= 110
 0 <= I_11_1 <= 95
 0 <= I_12_1 <= 63
 0 <= I_13_1 <= 114
 0 <= I_14_1 <= 57
 0 <= p_2 <= 10000000000
 0 <= y_2 <= 1
 0 <= I_0_2 <= 10000000000
 0 <= I_1_2 <= 20
 0 <= I_2_2 <= 45
 0 <= I_3_2 <= 45
 0 <= I_4_2 <= 14
 0 <= I_5_2 <= 39
 0 <= I_6_2 <= 96
 0 <= I_7_2 <= 132
 0 <= I_8_2 <= 26
 0 <= I_9_2 <= 114
 0 <= I_10_2 <= 110
 0 <= I_11_2 <= 95
 0 <= I_12_2 <= 63
 0 <= I_13_2 <= 114
 0 <= I_14_2 <= 57
 0 <= p_3 <= 10000000000
 0 <= y_3 <= 1
 0 <= I_0_3 <= 10000000000
 0 <= I_1_3 <= 20
 0 <= I_2_3 <= 45
 0 <= I_3_3 <= 45
 0 <= I_4_3 <= 14
 0 <= I_5_3 <= 39
 0 <= I_6_3 <= 96
 0 <= I_7_3 <= 132
 0 <= I_8_3 <= 26
 0 <= I_9_3 <= 114
 0 <= I_10_3 <= 110
 0 <= I_11_3 <= 95
 0 <= I_12_3 <= 63
 0 <= I_13_3 <= 114
 0 <= I_14_3 <= 57
 0 <= p_4 <= 10000000000
 0 <= y_4 <= 1
 0 <= I_0_4 <= 10000000000
 0 <= I_1_4 <= 20
 0 <= I_2_4 <= 45
 0 <= I_3_4 <= 45
 0 <= I_4_4 <= 14
 0 <= I_5_4 <= 39
 0 <= I_6_4 <= 96
 0 <= I_7_4 <= 132
 0 <= I_8_4 <= 26
 0 <= I_9_4 <= 114
 0 <= I_10_4 <= 110
 0 <= I_11_4 <= 95
 0 <= I_12_4 <= 63
 0 <= I_13_4 <= 114
 0 <= I_14_4 <= 57
 0 <= p_5 <= 10000000000
 0 <= y_5 <= 1
 0 <= I_0_5 <= 10000000000
 0 <= I_1_5 <= 20
 0 <= I_2_5 <= 45
 0 <= I_3_5 <= 45
 0 <= I_4_5 <= 14
 0 <= I_5_5 <= 39
 0 <= I_6_5 <= 96
 0 <= I_7_5 <= 132
 0 <= I_8_5 <= 26
 0 <= I_9_5 <= 114
 0 <= I_10_5 <= 110
 0 <= I_11_5 <= 95
 0 <= I_12_5 <= 63
 0 <= I_13_5 <= 114
 0 <= I_14_5 <= 57
      I_0_0 = 0
 0 <= q_0_1 <= 10000000000
 0 <= q_0_2 <= 10000000000
 0 <= q_0_3 <= 10000000000
 0 <= q_0_4 <= 10000000000
 0 <= q_0_5 <= 10000000000
      I_1_0 = 10
 0 <= q_1_1 <= 10000000000
 0 <= q_1_2 <= 10000000000
 0 <= q_1_3 <= 10000000000
 0 <= q_1_4 <= 10000000000
 0 <= q_1_5 <= 10000000000
      I_2_0 = 30
 0 <= q_2_1 <= 10000000000
 0 <= q_2_2 <= 10000000000
 0 <= q_2_3 <= 10000000000
 0 <= q_2_4 <= 10000000000
 0 <= q_2_5 <= 10000000000
      I_3_0 = 30
 0 <= q_3_1 <= 10000000000
 0 <= q_3_2 <= 10000000000
 0 <= q_3_3 <= 10000000000
 0 <= q_3_4 <= 10000000000
 0 <= q_3_5 <= 10000000000
      I_4_0 = 7
 0 <= q_4_1 <= 10000000000
 0 <= q_4_2 <= 10000000000
 0 <= q_4_3 <= 10000000000
 0 <= q_4_4 <= 10000000000
 0 <= q_4_5 <= 10000000000
      I_5_0 = 26
 0 <= q_5_1 <= 10000000000
 0 <= q_5_2 <= 10000000000
 0 <= q_5_3 <= 10000000000
 0 <= q_5_4 <= 10000000000
 0 <= q_5_5 <= 10000000000
      I_6_0 = 80
 0 <= q_6_1 <= 10000000000
 0 <= q_6_2 <= 10000000000
 0 <= q_6_3 <= 10000000000
 0 <= q_6_4 <= 10000000000
 0 <= q_6_5 <= 10000000000
      I_7_0 = 110
 0 <= q_7_1 <= 10000000000
 0 <= q_7_2 <= 10000000000
 0 <= q_7_3 <= 10000000000
 0 <= q_7_4 <= 10000000000
 0 <= q_7_5 <= 10000000000
      I_8_0 = 13
 0 <= q_8_1 <= 10000000000
 0 <= q_8_2 <= 10000000000
 0 <= q_8_3 <= 10000000000
 0 <= q_8_4 <= 10000000000
 0 <= q_8_5 <= 10000000000
      I_9_0 = 95
 0 <= q_9_1 <= 10000000000
 0 <= q_9_2 <= 10000000000
 0 <= q_9_3 <= 10000000000
 0 <= q_9_4 <= 10000000000
 0 <= q_9_5 <= 10000000000
      I_10_0 = 88
 0 <= q_10_1 <= 10000000000
 0 <= q_10_2 <= 10000000000
 0 <= q_10_3 <= 10000000000
 0 <= q_10_4 <= 10000000000
 0 <= q_10_5 <= 10000000000
      I_11_0 = 76
 0 <= q_11_1 <= 10000000000
 0 <= q_11_2 <= 10000000000
 0 <= q_11_3 <= 10000000000
 0 <= q_11_4 <= 10000000000
 0 <= q_11_5 <= 10000000000
      I_12_0 = 42
 0 <= q_12_1 <= 10000000000
 0 <= q_12_2 <= 10000000000
 0 <= q_12_3 <= 10000000000
 0 <= q_12_4 <= 10000000000
 0 <= q_12_5 <= 10000000000
      I_13_0 = 95
 0 <= q_13_1 <= 10000000000
 0 <= q_13_2 <= 10000000000
 0 <= q_13_3 <= 10000000000
 0 <= q_13_4 <= 10000000000
 0 <= q_13_5 <= 10000000000
      I_14_0 = 38
 0 <= q_14_1 <= 10000000000
 0 <= q_14_2 <= 10000000000
 0 <= q_14_3 <= 10000000000
 0 <= q_14_4 <= 10000000000
 0 <= q_14_5 <= 10000000000
Binaries
 y_1  y_2  y_3  y_4  y_5 
End
